13
0
1 0
3 1 0
2 5 1 0
8 5 11 1 0
11 4 8 23 1 0
8 23 50 11 5 1 0
13 7 12 6 2 45 1 0
6 2 53 3 7 2 12 1 0
16 34 27 12 6 14 21 3 1 0
8 52 5 28 7 11 26 8 23 1 0
18 54 9 5 79 12 6 14 21 32 1 0
16 34 23 13 11 88 8 34 21 12 6 1 0